c 
c G(n,p) graph
c graph gen seed     : 3110
c number of vertices : 60
c max number of edges: 1770
c edge probability   : 0.200000
c data structure     : sparse
c
c           Graph Stats
c number of vertices  : 60
c nonisolated vertices: 60
c number of edges     : 327
c edge density        : 0.184746
c max degree          : 18
c avg degree          : 10.90
c min degree          : 5
p col 60 327
e 1 57
e 1 51
e 1 49
e 1 46
e 1 45
e 1 36
e 1 32
e 2 56
e 2 49
e 2 46
e 2 36
e 2 33
e 2 24
e 2 20
e 2 17
e 2 5
e 3 54
e 3 53
e 3 50
e 3 49
e 3 46
e 3 43
e 3 33
e 3 27
e 3 6
e 4 50
e 4 48
e 4 46
e 4 45
e 4 42
e 4 41
e 4 38
e 4 36
e 4 28
e 4 21
e 4 18
e 4 16
e 4 13
e 4 12
e 4 10
e 4 5
e 5 53
e 5 51
e 5 44
e 5 43
e 5 38
e 5 37
e 5 32
e 5 24
e 5 16
e 6 56
e 6 45
e 6 40
e 6 33
e 6 31
e 6 29
e 6 26
e 6 23
e 6 19
e 6 18
e 6 14
e 6 11
e 7 58
e 7 54
e 7 49
e 7 32
e 7 28
e 7 27
e 7 12
e 7 11
e 8 58
e 8 55
e 8 53
e 8 45
e 8 44
e 8 43
e 8 33
e 8 32
e 8 31
e 8 23
e 9 58
e 9 41
e 9 40
e 9 36
e 9 34
e 9 32
e 9 29
e 9 28
e 9 22
e 9 20
e 9 10
e 10 60
e 10 59
e 10 54
e 10 50
e 10 49
e 10 48
e 10 36
e 10 35
e 10 31
e 10 30
e 10 27
e 10 21
e 10 20
e 11 57
e 11 56
e 11 42
e 11 38
e 11 30
e 11 19
e 11 18
e 12 53
e 12 50
e 12 31
e 13 58
e 13 57
e 13 54
e 13 49
e 13 37
e 13 30
e 13 28
e 13 27
e 13 25
e 14 49
e 14 48
e 14 45
e 14 40
e 14 39
e 14 29
e 14 27
e 14 25
e 14 24
e 14 23
e 14 21
e 14 18
e 14 15
e 15 59
e 15 58
e 15 57
e 15 54
e 15 52
e 15 45
e 15 38
e 15 36
e 15 23
e 15 22
e 15 21
e 15 20
e 15 17
e 16 60
e 16 56
e 16 55
e 16 50
e 16 18
e 17 45
e 17 38
e 17 27
e 17 23
e 17 20
e 17 19
e 18 59
e 18 54
e 18 44
e 18 28
e 18 22
e 18 21
e 19 56
e 19 49
e 19 45
e 19 41
e 19 38
e 19 27
e 20 58
e 20 49
e 20 45
e 20 43
e 20 40
e 20 31
e 20 26
e 20 21
e 21 58
e 21 42
e 21 33
e 21 31
e 21 28
e 21 25
e 22 57
e 22 56
e 22 55
e 22 53
e 22 52
e 22 49
e 22 48
e 22 46
e 22 44
e 22 40
e 22 29
e 22 28
e 23 60
e 23 59
e 23 56
e 23 49
e 23 47
e 23 46
e 23 44
e 23 39
e 23 33
e 23 31
e 23 24
e 24 59
e 24 56
e 24 48
e 24 45
e 24 44
e 25 59
e 25 58
e 25 55
e 25 50
e 25 43
e 25 41
e 25 39
e 25 34
e 25 26
e 26 57
e 26 46
e 26 43
e 26 39
e 26 36
e 26 30
e 26 29
e 26 28
e 27 57
e 27 56
e 27 46
e 27 35
e 27 34
e 28 60
e 28 55
e 28 50
e 28 49
e 28 44
e 28 43
e 28 36
e 29 58
e 29 53
e 29 52
e 29 51
e 29 49
e 29 46
e 29 44
e 29 33
e 30 60
e 30 59
e 30 56
e 30 48
e 30 41
e 30 38
e 31 57
e 31 53
e 31 52
e 31 36
e 31 32
e 32 58
e 32 36
e 33 51
e 33 47
e 33 46
e 33 41
e 33 40
e 34 58
e 34 56
e 34 44
e 35 59
e 35 54
e 35 49
e 35 46
e 35 44
e 35 43
e 36 57
e 36 51
e 36 48
e 36 39
e 37 57
e 37 47
e 37 42
e 37 41
e 37 39
e 38 47
e 39 60
e 40 59
e 40 57
e 40 53
e 40 52
e 40 48
e 40 46
e 41 59
e 41 47
e 42 49
e 42 46
e 43 60
e 43 54
e 43 46
e 44 57
e 44 55
e 44 52
e 44 50
e 44 48
e 44 46
e 45 51
e 46 59
e 46 50
e 47 54
e 47 51
e 47 50
e 48 59
e 48 57
e 48 56
e 48 50
e 48 49
e 49 56
e 49 53
e 50 56
e 50 53
e 51 59
e 54 57
e 56 60
e 56 58
